c
c start with comments
c
p cnf 26 18
-22 15 4 0
20 7 0
-11 3 19 -11 0
-21 19 -15 0
-17 -1 -22 0
12 -25 0
-12 -5 -26 -5 21 0
4 -12 26 0
2 -9 0
14 11 0
13 17 17 8 27 0
-4 -14 -18 25 6 0
16 23 26 -14 0
-6 10 0
18 -23 1 0
25 18 -26 -26 0
-20 9 0
-22 -3 23 0